DIMACS_lns/graph-1000-920.col
p edge 1000 1805
e 2 292
e 2 626
e 2 349
e 2 352
e 2 151
e 4 451
e 4 425
e 4 871
e 5 377
e 5 981
e 5 252
e 6 756
e 6 759
e 6 574
e 7 662
e 7 426
e 7 379
e 8 952
e 8 848
e 8 119
e 8 509
e 8 972
e 9 576
e 9 72
e 9 340
e 9 919
e 10 633
e 10 925
e 10 146
e 12 953
e 12 951
e 12 545
e 12 718
e 13 809
e 13 52
e 13 554
e 13 206
e 13 345
e 13 705
e 15 760
e 15 237
e 15 811
e 15 476
e 15 767
e 16 892
e 16 86
e 16 509
e 16 842
e 16 386
e 16 532
e 18 744
e 18 640
e 18 926
e 19 828
e 19 376
e 19 395
e 21 129
e 21 177
e 21 589
e 21 752
e 22 887
e 22 268
e 22 698
e 23 72
e 23 574
e 23 530
e 23 600
e 23 123
e 23 970
e 23 841
e 24 581
e 24 201
e 24 319
e 26 104
e 26 518
e 26 451
e 26 529
e 26 156
e 27 181
e 27 984
e 27 249
e 27 571
e 27 120
e 29 962
e 29 530
e 29 209
e 29 46
e 30 710
e 30 580
e 30 71
e 33 146
e 33 69
e 33 102
e 33 695
e 33 275
e 34 121
e 34 336
e 34 254
e 34 384
e 35 567
e 35 471
e 35 388
e 35 120
e 35 960
e 35 73
e 35 215
e 36 876
e 36 50
e 36 920
e 36 583
e 36 658
e 36 622
e 36 821
e 36 546
e 39 940
e 39 873
e 39 771
e 39 959
e 40 514
e 40 752
e 40 727
e 42 749
e 42 656
e 42 560
e 42 538
e 42 590
e 42 751
e 43 591
e 43 710
e 43 610
e 43 929
e 43 974
e 44 548
e 44 466
e 44 787
e 44 784
e 46 868
e 46 949
e 46 652
e 46 876
e 46 881
e 48 307
e 48 814
e 48 371
e 48 390
e 49 736
e 49 954
e 49 816
e 50 482
e 50 718
e 50 106
e 52 471
e 52 856
e 52 940
e 52 418
e 53 949
e 53 412
e 53 990
e 54 747
e 54 569
e 54 874
e 56 86
e 56 604
e 56 600
e 56 734
e 56 969
e 57 164
e 57 893
e 57 783
e 58 307
e 58 602
e 58 839
e 58 265
e 58 658
e 58 143
e 60 214
e 60 105
e 60 924
e 60 742
e 61 233
e 61 73
e 61 871
e 61 419
e 61 894
e 62 329
e 62 381
e 62 468
e 62 853
e 63 841
e 63 161
e 63 156
e 63 720
e 63 628
e 64 875
e 64 79
e 64 214
e 64 873
e 64 449
e 64 823
e 65 185
e 65 998
e 65 82
e 65 822
e 66 476
e 66 633
e 66 555
e 66 578
e 66 455
e 66 414
e 66 759
e 67 277
e 67 523
e 67 870
e 67 537
e 67 260
e 68 916
e 68 680
e 68 904
e 68 154
e 69 239
e 69 745
e 69 288
e 69 508
e 69 519
e 70 84
e 70 304
e 70 868
e 70 816
e 70 267
e 71 200
e 71 949
e 71 980
e 71 220
e 71 129
e 71 772
e 72 940
e 72 360
e 72 523
e 73 858
e 75 416
e 75 919
e 75 914
e 75 106
e 76 758
e 76 722
e 76 998
e 78 833
e 78 985
e 78 121
e 78 932
e 79 770
e 79 115
e 81 299
e 81 478
e 81 505
e 82 319
e 82 186
e 83 267
e 83 325
e 83 555
e 83 995
e 83 329
e 83 861
e 84 171
e 84 360
e 84 442
e 86 855
e 86 964
e 88 467
e 88 414
e 88 641
e 90 341
e 90 468
e 90 406
e 91 478
e 91 275
e 91 128
e 93 328
e 93 685
e 93 626
e 93 407
e 94 588
e 94 192
e 94 616
e 94 105
e 94 445
e 94 486
e 95 204
e 95 727
e 95 551
e 95 123
e 95 688
e 99 885
e 99 688
e 99 370
e 99 871
e 99 617
e 99 486
e 100 297
e 100 387
e 100 899
e 100 292
e 100 104
e 100 629
e 102 146
e 102 704
e 102 577
e 102 287
e 102 547
e 102 182
e 104 970
e 104 265
e 104 873
e 105 117
e 105 497
e 106 854
e 106 301
e 108 714
e 108 135
e 108 514
e 108 732
e 108 296
e 109 223
e 109 729
e 109 420
e 109 686
e 111 413
e 111 407
e 111 538
e 111 922
e 111 993
e 111 388
e 111 687
e 112 426
e 112 191
e 112 275
e 112 324
e 112 167
e 112 989
e 112 776
e 113 723
e 113 930
e 113 574
e 113 212
e 114 596
e 114 245
e 114 583
e 115 477
e 115 323
e 115 981
e 115 494
e 117 467
e 117 937
e 117 424
e 117 221
e 117 868
e 118 225
e 118 299
e 118 485
e 118 340
e 119 943
e 119 439
e 119 778
e 119 552
e 120 574
e 120 959
e 120 323
e 120 231
e 121 273
e 121 567
e 121 170
e 121 433
e 123 212
e 123 631
e 123 922
e 123 359
e 123 506
e 124 359
e 124 388
e 124 827
e 125 609
e 125 786
e 125 414
e 126 827
e 126 433
e 126 282
e 126 541
e 126 345
e 128 267
e 128 557
e 129 789
e 129 629
e 129 387
e 129 985
e 129 920
e 129 429
e 129 499
e 130 485
e 130 833
e 130 844
e 131 439
e 131 914
e 131 142
e 134 292
e 134 262
e 134 903
e 134 280
e 135 755
e 135 727
e 135 601
e 135 871
e 136 479
e 136 895
e 136 209
e 136 599
e 136 502
e 136 325
e 136 555
e 137 524
e 137 412
e 137 195
e 138 267
e 138 582
e 138 944
e 138 549
e 138 925
e 138 219
e 139 841
e 139 843
e 139 190
e 139 909
e 140 578
e 140 294
e 140 794
e 142 771
e 142 447
e 142 885
e 142 930
e 142 361
e 143 308
e 143 756
e 146 246
e 146 500
e 146 624
e 146 930
e 146 850
e 148 543
e 148 154
e 148 892
e 148 452
e 148 880
e 149 609
e 149 700
e 149 191
e 149 842
e 149 558
e 151 429
e 151 290
e 151 305
e 151 232
e 152 866
e 152 785
e 152 341
e 152 527
e 152 855
e 153 243
e 153 297
e 153 952
e 154 870
e 154 949
e 154 275
e 154 804
e 154 538
e 154 770
e 155 602
e 155 952
e 155 943
e 155 619
e 156 873
e 156 182
e 156 789
e 156 754
e 156 185
e 157 509
e 157 497
e 157 504
e 157 767
e 157 771
e 161 973
e 161 912
e 161 650
e 162 717
e 162 919
e 162 231
e 164 747
e 164 756
e 166 215
e 166 914
e 166 740
e 166 753
e 166 399
e 166 921
e 167 899
e 167 568
e 169 402
e 169 270
e 169 893
e 169 306
e 170 818
e 170 959
e 171 570
e 171 980
e 171 758
e 172 608
e 172 800
e 172 614
e 175 784
e 175 786
e 175 538
e 175 686
e 177 740
e 177 699
e 178 875
e 178 841
e 178 284
e 178 443
e 181 820
e 181 361
e 181 600
e 181 751
e 182 585
e 182 897
e 182 887
e 183 246
e 183 254
e 183 201
e 184 332
e 184 732
e 184 811
e 185 315
e 186 799
e 186 635
e 186 352
e 186 231
e 188 703
e 188 411
e 188 659
e 190 596
e 190 390
e 191 971
e 191 390
e 191 624
e 192 568
e 192 314
e 192 801
e 192 455
e 193 345
e 193 576
e 193 374
e 193 663
e 193 330
e 194 970
e 194 749
e 194 477
e 194 815
e 194 785
e 195 518
e 195 485
e 195 459
e 196 259
e 196 670
e 196 284
e 196 255
e 196 652
e 197 970
e 197 741
e 197 337
e 197 427
e 197 915
e 198 450
e 198 425
e 198 465
e 198 412
e 198 646
e 198 411
e 199 200
e 199 278
e 199 709
e 199 829
e 199 815
e 199 873
e 199 849
e 200 504
e 200 724
e 200 538
e 200 525
e 200 557
e 200 748
e 200 596
e 200 869
e 200 786
e 201 866
e 201 479
e 203 877
e 203 824
e 203 217
e 204 935
e 204 903
e 204 812
e 204 823
e 205 798
e 205 811
e 205 405
e 205 349
e 205 290
e 206 644
e 206 296
e 206 569
e 206 820
e 206 258
e 208 249
e 208 804
e 208 341
e 208 240
e 208 826
e 209 989
e 209 622
e 210 378
e 210 351
e 210 890
e 211 487
e 211 947
e 211 842
e 211 504
e 211 448
e 212 908
e 212 790
e 212 286
e 212 570
e 212 714
e 214 703
e 214 278
e 214 433
e 214 726
e 215 811
e 215 396
e 217 564
e 217 820
e 217 475
e 218 502
e 218 246
e 218 874
e 218 759
e 218 339
e 218 395
e 218 758
e 219 342
e 219 787
e 220 757
e 220 798
e 221 235
e 221 314
e 221 228
e 221 286
e 223 983
e 223 654
e 224 558
e 224 600
e 224 466
e 224 938
e 225 382
e 225 537
e 228 313
e 228 640
e 229 694
e 229 874
e 229 400
e 229 434
e 229 751
e 229 604
e 231 434
e 231 844
e 231 759
e 231 980
e 232 645
e 232 386
e 233 797
e 233 359
e 234 248
e 234 570
e 234 557
e 235 908
e 235 912
e 236 734
e 236 959
e 236 299
e 236 425
e 237 897
e 237 321
e 237 705
e 238 484
e 238 888
e 238 580
e 239 918
e 239 250
e 239 454
e 239 543
e 239 848
e 239 688
e 240 381
e 240 428
e 241 978
e 241 887
e 241 990
e 241 855
e 242 344
e 242 405
e 242 471
e 242 743
e 243 414
e 243 857
e 243 447
e 244 332
e 244 354
e 244 544
e 244 663
e 244 983
e 245 652
e 245 250
e 246 576
e 246 461
e 248 486
e 248 281
e 248 552
e 248 257
e 248 1000
e 248 755
e 248 690
e 249 427
e 249 291
e 249 768
e 249 714
e 249 624
e 249 273
e 249 447
e 249 458
e 250 363
e 250 757
e 250 761
e 250 487
e 250 915
e 251 937
e 251 710
e 251 850
e 252 270
e 252 621
e 253 361
e 253 943
e 253 972
e 254 942
e 254 609
e 255 419
e 255 991
e 256 858
e 256 775
e 256 530
e 256 808
e 256 750
e 256 607
e 256 926
e 257 363
e 257 492
e 257 434
e 257 773
e 257 608
e 257 524
e 258 678
e 258 551
e 258 823
e 259 517
e 259 898
e 260 797
e 260 689
e 260 984
e 260 447
e 262 775
e 262 515
e 262 517
e 262 266
e 262 417
e 263 503
e 263 649
e 263 907
e 265 296
e 265 423
e 265 902
e 265 491
e 265 818
e 266 573
e 266 973
e 266 514
e 267 890
e 267 598
e 267 491
e 267 896
e 268 514
e 268 743
e 268 974
e 268 713
e 268 981
e 268 727
e 270 765
e 270 514
e 270 293
e 271 278
e 271 893
e 271 633
e 271 315
e 272 445
e 272 548
e 272 916
e 273 679
e 274 378
e 274 408
e 274 415
e 275 855
e 277 416
e 277 689
e 277 781
e 277 930
e 278 801
e 280 527
e 280 957
e 280 545
e 281 878
e 281 591
e 282 909
e 282 415
e 282 726
e 284 416
e 284 781
e 284 952
e 285 888
e 285 835
e 285 695
e 286 984
e 286 547
e 287 456
e 287 714
e 287 969
e 287 776
e 287 774
e 287 405
e 287 523
e 288 779
e 288 761
e 288 569
e 290 895
e 290 781
e 291 815
e 291 760
e 292 970
e 292 656
e 292 929
e 292 567
e 292 361
e 292 811
e 293 345
e 293 891
e 294 310
e 294 723
e 294 397
e 296 607
e 297 963
e 297 319
e 297 865
e 297 999
e 297 389
e 299 802
e 299 849
e 301 415
e 301 444
e 304 646
e 304 363
e 304 959
e 304 950
e 305 678
e 305 814
e 305 505
e 306 652
e 306 328
e 306 572
e 307 979
e 307 593
e 307 354
e 307 447
e 307 452
e 308 779
e 308 818
e 308 938
e 310 341
e 310 572
e 310 545
e 310 569
e 310 809
e 310 800
e 310 763
e 310 815
e 310 953
e 310 660
e 310 870
e 313 964
e 313 920
e 313 926
e 314 490
e 315 451
e 315 376
e 315 452
e 317 842
e 317 900
e 317 408
e 317 370
e 319 760
e 319 816
e 319 743
e 321 943
e 321 883
e 321 600
e 323 748
e 324 947
e 324 625
e 324 527
e 324 704
e 324 487
e 325 466
e 325 924
e 325 448
e 325 998
e 328 396
e 328 612
e 328 360
e 328 624
e 328 802
e 328 573
e 328 854
e 329 759
e 329 855
e 329 814
e 330 641
e 330 534
e 330 800
e 332 812
e 332 897
e 332 623
e 332 631
e 332 744
e 332 942
e 332 662
e 332 870
e 334 359
e 334 796
e 334 537
e 334 866
e 336 675
e 336 656
e 336 938
e 336 883
e 337 547
e 337 919
e 337 612
e 337 740
e 338 920
e 338 821
e 338 922
e 339 835
e 339 477
e 339 681
e 339 485
e 340 544
e 340 740
e 340 935
e 341 397
e 342 534
e 342 552
e 342 617
e 342 858
e 342 948
e 343 405
e 343 796
e 343 780
e 344 423
e 344 822
e 344 451
e 344 862
e 344 661
e 345 787
e 345 759
e 345 724
e 345 832
e 347 427
e 347 554
e 347 747
e 347 865
e 348 973
e 348 951
e 348 995
e 348 625
e 348 444
e 348 792
e 349 529
e 351 583
e 351 365
e 351 686
e 352 715
e 352 895
e 352 969
e 354 886
e 354 463
e 354 780
e 359 503
e 359 863
e 360 548
e 361 570
e 361 625
e 361 588
e 361 996
e 361 805
e 363 690
e 365 993
e 365 654
e 365 444
e 367 993
e 367 382
e 367 454
e 370 941
e 370 415
e 370 740
e 371 952
e 371 868
e 371 842
e 374 418
e 374 408
e 374 869
e 376 963
e 376 774
e 377 770
e 377 729
e 377 622
e 378 515
e 378 833
e 378 671
e 378 465
e 379 984
e 379 948
e 379 479
e 381 988
e 381 685
e 381 545
e 381 686
e 382 725
e 382 471
e 382 921
e 384 658
e 384 514
e 384 546
e 386 919
e 386 982
e 386 892
e 387 786
e 387 650
e 387 422
e 387 991
e 388 440
e 389 571
e 389 662
e 389 723
e 389 690
e 389 400
e 390 450
e 390 626
e 390 490
e 390 437
e 391 699
e 391 827
e 391 748
e 391 442
e 391 788
e 392 787
e 392 938
e 392 710
e 392 922
e 395 951
e 396 500
e 396 929
e 397 767
e 397 961
e 397 523
e 397 477
e 397 635
e 399 799
e 399 445
e 399 815
e 400 957
e 400 806
e 402 855
e 402 570
e 402 587
e 404 604
e 404 454
e 404 413
e 405 767
e 405 568
e 406 928
e 406 896
e 406 686
e 406 524
e 407 616
e 407 722
e 407 995
e 407 812
e 407 880
e 407 640
e 407 465
e 408 882
e 408 835
e 408 916
e 408 429
e 408 904
e 409 706
e 409 891
e 409 824
e 411 875
e 411 694
e 411 806
e 411 632
e 412 649
e 412 434
e 412 468
e 412 514
e 413 494
e 415 522
e 416 483
e 416 773
e 417 859
e 417 933
e 418 999
e 419 666
e 419 778
e 420 698
e 420 750
e 422 961
e 422 956
e 423 689
e 423 911
e 424 466
e 424 729
e 424 687
e 425 779
e 425 722
e 425 902
e 426 947
e 427 731
e 427 710
e 428 674
e 428 964
e 428 876
e 428 805
e 429 889
e 429 586
e 433 741
e 433 982
e 433 591
e 434 784
e 434 661
e 437 471
e 437 629
e 437 844
e 439 904
e 439 805
e 439 571
e 440 574
e 440 519
e 440 656
e 440 723
e 440 468
e 442 654
e 442 820
e 442 640
e 443 527
e 443 591
e 444 842
e 445 714
e 445 463
e 447 988
e 447 902
e 448 608
e 448 992
e 449 718
e 449 919
e 450 951
e 450 633
e 451 569
e 451 546
e 452 753
e 452 694
e 452 532
e 454 867
e 454 797
e 454 548
e 455 659
e 455 811
e 456 833
e 456 522
e 456 500
e 456 772
e 457 644
e 457 609
e 457 536
e 457 681
e 458 502
e 458 819
e 459 959
e 459 806
e 459 826
e 461 568
e 461 703
e 461 643
e 462 869
e 462 928
e 462 903
e 462 918
e 462 948
e 462 775
e 463 533
e 465 471
e 465 918
e 466 792
e 467 742
e 467 934
e 467 558
e 468 490
e 468 522
e 468 799
e 471 599
e 471 759
e 471 524
e 471 586
e 471 764
e 475 859
e 475 954
e 475 674
e 476 726
e 476 601
e 477 599
e 478 497
e 478 604
e 478 736
e 478 635
e 478 672
e 478 659
e 479 628
e 479 666
e 479 746
e 479 592
e 482 705
e 482 952
e 482 499
e 483 572
e 483 951
e 483 915
e 483 506
e 483 536
e 484 570
e 484 598
e 485 625
e 485 856
e 486 568
e 486 587
e 486 949
e 486 915
e 486 736
e 486 818
e 487 854
e 487 930
e 488 607
e 488 734
e 488 654
e 490 506
e 491 507
e 491 628
e 492 891
e 492 984
e 494 517
e 494 942
e 497 869
e 497 996
e 497 733
e 497 795
e 498 689
e 498 674
e 498 721
e 499 805
e 499 933
e 499 992
e 499 828
e 499 715
e 500 610
e 502 522
e 502 504
e 502 534
e 503 734
e 503 904
e 503 948
e 504 981
e 504 795
e 505 962
e 505 932
e 506 777
e 506 573
e 506 814
e 506 687
e 506 885
e 507 844
e 507 560
e 507 804
e 508 536
e 508 854
e 508 943
e 509 580
e 509 773
e 509 750
e 509 614
e 509 589
e 510 567
e 510 978
e 510 963
e 514 966
e 514 941
e 514 897
e 515 863
e 517 821
e 517 780
e 517 718
e 518 656
e 519 897
e 519 713
e 519 888
e 519 582
e 520 744
e 520 727
e 520 951
e 521 985
e 521 623
e 521 680
e 522 617
e 522 859
e 522 821
e 523 635
e 523 956
e 524 963
e 525 752
e 525 626
e 525 585
e 527 820
e 529 768
e 529 590
e 530 581
e 530 593
e 532 899
e 532 974
e 533 802
e 533 678
e 534 797
e 536 937
e 536 542
e 536 742
e 536 907
e 536 884
e 536 893
e 537 714
e 537 996
e 540 969
e 540 659
e 540 585
e 541 751
e 541 916
e 542 733
e 542 843
e 542 908
e 543 724
e 544 596
e 544 654
e 544 703
e 544 657
e 545 961
e 545 629
e 545 661
e 545 902
e 545 981
e 545 605
e 545 696
e 546 606
e 546 679
e 547 874
e 549 932
e 549 792
e 551 633
e 551 755
e 552 652
e 553 749
e 553 632
e 553 753
e 553 662
e 554 618
e 554 723
e 554 571
e 555 966
e 555 574
e 555 779
e 555 992
e 557 775
e 557 663
e 557 873
e 558 832
e 558 953
e 560 659
e 564 893
e 564 918
e 568 944
e 568 833
e 568 824
e 568 706
e 568 622
e 569 828
e 569 941
e 570 627
e 572 850
e 572 784
e 573 723
e 574 793
e 574 848
e 576 713
e 576 701
e 576 740
e 577 637
e 577 761
e 577 874
e 578 784
e 578 666
e 578 828
e 578 845
e 578 591
e 578 726
e 580 686
e 580 1000
e 580 980
e 581 929
e 581 843
e 582 828
e 583 906
e 583 618
e 585 754
e 585 646
e 585 876
e 586 785
e 587 624
e 588 593
e 588 784
e 589 797
e 589 953
e 590 889
e 591 903
e 592 794
e 592 690
e 593 715
e 596 765
e 598 625
e 598 632
e 598 792
e 598 699
e 599 800
e 600 756
e 600 882
e 600 777
e 600 605
e 601 889
e 601 623
e 602 880
e 602 978
e 605 978
e 605 871
e 606 646
e 606 704
e 606 661
e 606 888
e 606 886
e 606 750
e 607 713
e 607 706
e 608 850
e 609 829
e 610 816
e 610 952
e 610 768
e 612 726
e 614 618
e 614 985
e 616 971
e 616 989
e 617 683
e 617 759
e 618 726
e 619 809
e 619 637
e 619 801
e 619 814
e 621 683
e 621 833
e 621 680
e 622 672
e 622 827
e 623 960
e 624 681
e 627 770
e 627 969
e 628 743
e 629 949
e 631 758
e 631 956
e 631 954
e 631 643
e 631 815
e 632 659
e 633 800
e 633 995
e 635 878
e 635 959
e 637 845
e 641 821
e 643 899
e 643 821
e 644 998
e 644 902
e 645 760
e 645 770
e 646 893
e 646 793
e 649 675
e 650 867
e 650 883
e 650 687
e 651 695
e 651 731
e 651 857
e 652 731
e 652 895
e 657 723
e 657 777
e 659 771
e 659 867
e 659 892
e 660 956
e 660 926
e 661 908
e 661 709
e 661 877
e 661 778
e 662 686
e 662 892
e 663 754
e 666 972
e 666 924
e 670 979
e 670 937
e 670 787
e 671 686
e 671 992
e 672 964
e 674 822
e 675 944
e 678 841
e 678 683
e 678 933
e 679 991
e 679 887
e 680 783
e 680 843
e 680 980
e 681 964
e 681 832
e 681 970
e 681 950
e 683 972
e 683 877
e 683 801
e 685 957
e 685 914
e 686 764
e 686 850
e 686 760
e 688 761
e 688 935
e 689 746
e 690 934
e 690 839
e 690 804
e 694 981
e 694 894
e 696 911
e 696 956
e 697 826
e 697 818
e 697 966
e 697 726
e 698 953
e 699 731
e 700 788
e 700 941
e 701 741
e 701 717
e 701 853
e 703 853
e 703 941
e 706 764
e 709 777
e 709 992
e 714 909
e 715 919
e 717 896
e 718 875
e 720 900
e 720 902
e 720 833
e 721 880
e 721 759
e 723 842
e 724 741
e 724 883
e 725 934
e 725 755
e 725 897
e 727 824
e 729 982
e 729 876
e 731 853
e 732 886
e 733 808
e 733 818
e 734 952
e 737 1000
e 737 750
e 737 924
e 737 798
e 742 790
e 745 876
e 745 950
e 746 983
e 746 984
e 747 849
e 748 948
e 751 1000
e 752 763
e 752 780
e 752 868
e 755 760
e 755 981
e 757 995
e 758 985
e 760 874
e 760 938
e 760 972
e 761 943
e 763 876
e 763 953
e 765 784
e 765 896
e 770 787
e 771 926
e 771 892
e 771 956
e 772 980
e 772 871
e 773 988
e 773 891
e 774 795
e 776 952
e 776 819
e 777 954
e 780 861
e 781 790
e 783 990
e 783 894
e 784 876
e 784 974
e 786 952
e 786 875
e 786 943
e 787 796
e 787 962
e 787 890
e 788 906
e 789 891
e 790 881
e 790 995
e 792 884
e 793 808
e 793 899
e 794 933
e 794 894
e 795 798
e 796 953
e 798 898
e 798 894
e 799 954
e 799 862
e 800 886
e 800 971
e 805 947
e 806 819
e 809 957
e 811 858
e 812 950
e 814 850
e 814 893
e 814 971
e 815 988
e 818 862
e 821 974
e 821 919
e 822 930
e 822 897
e 822 856
e 823 978
e 826 981
e 828 876
e 829 871
e 834 953
e 834 992
e 834 970
e 835 916
e 839 908
e 841 999
e 841 970
e 842 985
e 845 895
e 847 892
e 847 896
e 847 868
e 848 942
e 854 873
e 854 865
e 856 863
e 857 921
e 857 978
e 859 922
e 861 877
e 862 974
e 867 883
e 867 943
e 871 983
e 877 962
e 877 973
e 878 999
e 881 882
e 881 888
e 882 912
e 884 973
e 885 908
e 886 902
e 888 943
e 888 928
e 890 964
e 892 918
e 892 950
e 894 935
e 894 924
e 896 912
e 898 978
e 898 949
e 899 959
e 899 957
e 900 992
e 906 996
e 906 988
e 907 971
e 911 954
e 920 924
e 924 952
e 925 985
e 925 990
e 928 995
e 934 940
e 938 984
e 940 949
e 942 949
e 943 964
e 944 964
e 947 982
e 950 960
e 950 980
e 952 962
e 956 988
e 964 984
e 969 971
e 979 984
