txt_Ins/graph-1000-920.txt
n 1000
e 1 291
e 1 625
e 1 348
e 1 351
e 1 150
e 3 450
e 3 424
e 3 870
e 4 376
e 4 980
e 4 251
e 5 755
e 5 758
e 5 573
e 6 661
e 6 425
e 6 378
e 7 951
e 7 847
e 7 118
e 7 508
e 7 971
e 8 575
e 8 71
e 8 339
e 8 918
e 9 632
e 9 924
e 9 145
e 11 952
e 11 950
e 11 544
e 11 717
e 12 808
e 12 51
e 12 553
e 12 205
e 12 344
e 12 704
e 14 759
e 14 236
e 14 810
e 14 475
e 14 766
e 15 891
e 15 85
e 15 508
e 15 841
e 15 385
e 15 531
e 17 743
e 17 639
e 17 925
e 18 827
e 18 375
e 18 394
e 20 128
e 20 176
e 20 588
e 20 751
e 21 886
e 21 267
e 21 697
e 22 71
e 22 573
e 22 529
e 22 599
e 22 122
e 22 969
e 22 840
e 23 580
e 23 200
e 23 318
e 25 103
e 25 517
e 25 450
e 25 528
e 25 155
e 26 180
e 26 983
e 26 248
e 26 570
e 26 119
e 28 961
e 28 529
e 28 208
e 28 45
e 29 709
e 29 579
e 29 70
e 32 145
e 32 68
e 32 101
e 32 694
e 32 274
e 33 120
e 33 335
e 33 253
e 33 383
e 34 566
e 34 470
e 34 387
e 34 119
e 34 959
e 34 72
e 34 214
e 35 875
e 35 49
e 35 919
e 35 582
e 35 657
e 35 621
e 35 820
e 35 545
e 38 939
e 38 872
e 38 770
e 38 958
e 39 513
e 39 751
e 39 726
e 41 748
e 41 655
e 41 559
e 41 537
e 41 589
e 41 750
e 42 590
e 42 709
e 42 609
e 42 928
e 42 973
e 43 547
e 43 465
e 43 786
e 43 783
e 45 867
e 45 948
e 45 651
e 45 875
e 45 880
e 47 306
e 47 813
e 47 370
e 47 389
e 48 735
e 48 953
e 48 815
e 49 481
e 49 717
e 49 105
e 51 470
e 51 855
e 51 939
e 51 417
e 52 948
e 52 411
e 52 989
e 53 746
e 53 568
e 53 873
e 55 85
e 55 603
e 55 599
e 55 733
e 55 968
e 56 163
e 56 892
e 56 782
e 57 306
e 57 601
e 57 838
e 57 264
e 57 657
e 57 142
e 59 213
e 59 104
e 59 923
e 59 741
e 60 232
e 60 72
e 60 870
e 60 418
e 60 893
e 61 328
e 61 380
e 61 467
e 61 852
e 62 840
e 62 160
e 62 155
e 62 719
e 62 627
e 63 874
e 63 78
e 63 213
e 63 872
e 63 448
e 63 822
e 64 184
e 64 997
e 64 81
e 64 821
e 65 475
e 65 632
e 65 554
e 65 577
e 65 454
e 65 413
e 65 758
e 66 276
e 66 522
e 66 869
e 66 536
e 66 259
e 67 915
e 67 679
e 67 903
e 67 153
e 68 238
e 68 744
e 68 287
e 68 507
e 68 518
e 69 83
e 69 303
e 69 867
e 69 815
e 69 266
e 70 199
e 70 948
e 70 979
e 70 219
e 70 128
e 70 771
e 71 939
e 71 359
e 71 522
e 72 857
e 74 415
e 74 918
e 74 913
e 74 105
e 75 757
e 75 721
e 75 997
e 77 832
e 77 984
e 77 120
e 77 931
e 78 769
e 78 114
e 80 298
e 80 477
e 80 504
e 81 318
e 81 185
e 82 266
e 82 324
e 82 554
e 82 994
e 82 328
e 82 860
e 83 170
e 83 359
e 83 441
e 85 854
e 85 963
e 87 466
e 87 413
e 87 640
e 89 340
e 89 467
e 89 405
e 90 477
e 90 274
e 90 127
e 92 327
e 92 684
e 92 625
e 92 406
e 93 587
e 93 191
e 93 615
e 93 104
e 93 444
e 93 485
e 94 203
e 94 726
e 94 550
e 94 122
e 94 687
e 98 884
e 98 687
e 98 369
e 98 870
e 98 616
e 98 485
e 99 296
e 99 386
e 99 898
e 99 291
e 99 103
e 99 628
e 101 145
e 101 703
e 101 576
e 101 286
e 101 546
e 101 181
e 103 969
e 103 264
e 103 872
e 104 116
e 104 496
e 105 853
e 105 300
e 107 713
e 107 134
e 107 513
e 107 731
e 107 295
e 108 222
e 108 728
e 108 419
e 108 685
e 110 412
e 110 406
e 110 537
e 110 921
e 110 992
e 110 387
e 110 686
e 111 425
e 111 190
e 111 274
e 111 323
e 111 166
e 111 988
e 111 775
e 112 722
e 112 929
e 112 573
e 112 211
e 113 595
e 113 244
e 113 582
e 114 476
e 114 322
e 114 980
e 114 493
e 116 466
e 116 936
e 116 423
e 116 220
e 116 867
e 117 224
e 117 298
e 117 484
e 117 339
e 118 942
e 118 438
e 118 777
e 118 551
e 119 573
e 119 958
e 119 322
e 119 230
e 120 272
e 120 566
e 120 169
e 120 432
e 122 211
e 122 630
e 122 921
e 122 358
e 122 505
e 123 358
e 123 387
e 123 826
e 124 608
e 124 785
e 124 413
e 125 826
e 125 432
e 125 281
e 125 540
e 125 344
e 127 266
e 127 556
e 128 788
e 128 628
e 128 386
e 128 984
e 128 919
e 128 428
e 128 498
e 129 484
e 129 832
e 129 843
e 130 438
e 130 913
e 130 141
e 133 291
e 133 261
e 133 902
e 133 279
e 134 754
e 134 726
e 134 600
e 134 870
e 135 478
e 135 894
e 135 208
e 135 598
e 135 501
e 135 324
e 135 554
e 136 523
e 136 411
e 136 194
e 137 266
e 137 581
e 137 943
e 137 548
e 137 924
e 137 218
e 138 840
e 138 842
e 138 189
e 138 908
e 139 577
e 139 293
e 139 793
e 141 770
e 141 446
e 141 884
e 141 929
e 141 360
e 142 307
e 142 755
e 145 245
e 145 499
e 145 623
e 145 929
e 145 849
e 147 542
e 147 153
e 147 891
e 147 451
e 147 879
e 148 608
e 148 699
e 148 190
e 148 841
e 148 557
e 150 428
e 150 289
e 150 304
e 150 231
e 151 865
e 151 784
e 151 340
e 151 526
e 151 854
e 152 242
e 152 296
e 152 951
e 153 869
e 153 948
e 153 274
e 153 803
e 153 537
e 153 769
e 154 601
e 154 951
e 154 942
e 154 618
e 155 872
e 155 181
e 155 788
e 155 753
e 155 184
e 156 508
e 156 496
e 156 503
e 156 766
e 156 770
e 160 972
e 160 911
e 160 649
e 161 716
e 161 918
e 161 230
e 163 746
e 163 755
e 165 214
e 165 913
e 165 739
e 165 752
e 165 398
e 165 920
e 166 898
e 166 567
e 168 401
e 168 269
e 168 892
e 168 305
e 169 817
e 169 958
e 170 569
e 170 979
e 170 757
e 171 607
e 171 799
e 171 613
e 174 783
e 174 785
e 174 537
e 174 685
e 176 739
e 176 698
e 177 874
e 177 840
e 177 283
e 177 442
e 180 819
e 180 360
e 180 599
e 180 750
e 181 584
e 181 896
e 181 886
e 182 245
e 182 253
e 182 200
e 183 331
e 183 731
e 183 810
e 184 314
e 185 798
e 185 634
e 185 351
e 185 230
e 187 702
e 187 410
e 187 658
e 189 595
e 189 389
e 190 970
e 190 389
e 190 623
e 191 567
e 191 313
e 191 800
e 191 454
e 192 344
e 192 575
e 192 373
e 192 662
e 192 329
e 193 969
e 193 748
e 193 476
e 193 814
e 193 784
e 194 517
e 194 484
e 194 458
e 195 258
e 195 669
e 195 283
e 195 254
e 195 651
e 196 969
e 196 740
e 196 336
e 196 426
e 196 914
e 197 449
e 197 424
e 197 464
e 197 411
e 197 645
e 197 410
e 198 199
e 198 277
e 198 708
e 198 828
e 198 814
e 198 872
e 198 848
e 199 503
e 199 723
e 199 537
e 199 524
e 199 556
e 199 747
e 199 595
e 199 868
e 199 785
e 200 865
e 200 478
e 202 876
e 202 823
e 202 216
e 203 934
e 203 902
e 203 811
e 203 822
e 204 797
e 204 810
e 204 404
e 204 348
e 204 289
e 205 643
e 205 295
e 205 568
e 205 819
e 205 257
e 207 248
e 207 803
e 207 340
e 207 239
e 207 825
e 208 988
e 208 621
e 209 377
e 209 350
e 209 889
e 210 486
e 210 946
e 210 841
e 210 503
e 210 447
e 211 907
e 211 789
e 211 285
e 211 569
e 211 713
e 213 702
e 213 277
e 213 432
e 213 725
e 214 810
e 214 395
e 216 563
e 216 819
e 216 474
e 217 501
e 217 245
e 217 873
e 217 758
e 217 338
e 217 394
e 217 757
e 218 341
e 218 786
e 219 756
e 219 797
e 220 234
e 220 313
e 220 227
e 220 285
e 222 982
e 222 653
e 223 557
e 223 599
e 223 465
e 223 937
e 224 381
e 224 536
e 227 312
e 227 639
e 228 693
e 228 873
e 228 399
e 228 433
e 228 750
e 228 603
e 230 433
e 230 843
e 230 758
e 230 979
e 231 644
e 231 385
e 232 796
e 232 358
e 233 247
e 233 569
e 233 556
e 234 907
e 234 911
e 235 733
e 235 958
e 235 298
e 235 424
e 236 896
e 236 320
e 236 704
e 237 483
e 237 887
e 237 579
e 238 917
e 238 249
e 238 453
e 238 542
e 238 847
e 238 687
e 239 380
e 239 427
e 240 977
e 240 886
e 240 989
e 240 854
e 241 343
e 241 404
e 241 470
e 241 742
e 242 413
e 242 856
e 242 446
e 243 331
e 243 353
e 243 543
e 243 662
e 243 982
e 244 651
e 244 249
e 245 575
e 245 460
e 247 485
e 247 280
e 247 551
e 247 256
e 247 999
e 247 754
e 247 689
e 248 426
e 248 290
e 248 767
e 248 713
e 248 623
e 248 272
e 248 446
e 248 457
e 249 362
e 249 756
e 249 760
e 249 486
e 249 914
e 250 936
e 250 709
e 250 849
e 251 269
e 251 620
e 252 360
e 252 942
e 252 971
e 253 941
e 253 608
e 254 418
e 254 990
e 255 857
e 255 774
e 255 529
e 255 807
e 255 749
e 255 606
e 255 925
e 256 362
e 256 491
e 256 433
e 256 772
e 256 607
e 256 523
e 257 677
e 257 550
e 257 822
e 258 516
e 258 897
e 259 796
e 259 688
e 259 983
e 259 446
e 261 774
e 261 514
e 261 516
e 261 265
e 261 416
e 262 502
e 262 648
e 262 906
e 264 295
e 264 422
e 264 901
e 264 490
e 264 817
e 265 572
e 265 972
e 265 513
e 266 889
e 266 597
e 266 490
e 266 895
e 267 513
e 267 742
e 267 973
e 267 712
e 267 980
e 267 726
e 269 764
e 269 513
e 269 292
e 270 277
e 270 892
e 270 632
e 270 314
e 271 444
e 271 547
e 271 915
e 272 678
e 273 377
e 273 407
e 273 414
e 274 854
e 276 415
e 276 688
e 276 780
e 276 929
e 277 800
e 279 526
e 279 956
e 279 544
e 280 877
e 280 590
e 281 908
e 281 414
e 281 725
e 283 415
e 283 780
e 283 951
e 284 887
e 284 834
e 284 694
e 285 983
e 285 546
e 286 455
e 286 713
e 286 968
e 286 775
e 286 773
e 286 404
e 286 522
e 287 778
e 287 760
e 287 568
e 289 894
e 289 780
e 290 814
e 290 759
e 291 969
e 291 655
e 291 928
e 291 566
e 291 360
e 291 810
e 292 344
e 292 890
e 293 309
e 293 722
e 293 396
e 295 606
e 296 962
e 296 318
e 296 864
e 296 998
e 296 388
e 298 801
e 298 848
e 300 414
e 300 443
e 303 645
e 303 362
e 303 958
e 303 949
e 304 677
e 304 813
e 304 504
e 305 651
e 305 327
e 305 571
e 306 978
e 306 592
e 306 353
e 306 446
e 306 451
e 307 778
e 307 817
e 307 937
e 309 340
e 309 571
e 309 544
e 309 568
e 309 808
e 309 799
e 309 762
e 309 814
e 309 952
e 309 659
e 309 869
e 312 963
e 312 919
e 312 925
e 313 489
e 314 450
e 314 375
e 314 451
e 316 841
e 316 899
e 316 407
e 316 369
e 318 759
e 318 815
e 318 742
e 320 942
e 320 882
e 320 599
e 322 747
e 323 946
e 323 624
e 323 526
e 323 703
e 323 486
e 324 465
e 324 923
e 324 447
e 324 997
e 327 395
e 327 611
e 327 359
e 327 623
e 327 801
e 327 572
e 327 853
e 328 758
e 328 854
e 328 813
e 329 640
e 329 533
e 329 799
e 331 811
e 331 896
e 331 622
e 331 630
e 331 743
e 331 941
e 331 661
e 331 869
e 333 358
e 333 795
e 333 536
e 333 865
e 335 674
e 335 655
e 335 937
e 335 882
e 336 546
e 336 918
e 336 611
e 336 739
e 337 919
e 337 820
e 337 921
e 338 834
e 338 476
e 338 680
e 338 484
e 339 543
e 339 739
e 339 934
e 340 396
e 341 533
e 341 551
e 341 616
e 341 857
e 341 947
e 342 404
e 342 795
e 342 779
e 343 422
e 343 821
e 343 450
e 343 861
e 343 660
e 344 786
e 344 758
e 344 723
e 344 831
e 346 426
e 346 553
e 346 746
e 346 864
e 347 972
e 347 950
e 347 994
e 347 624
e 347 443
e 347 791
e 348 528
e 350 582
e 350 364
e 350 685
e 351 714
e 351 894
e 351 968
e 353 885
e 353 462
e 353 779
e 358 502
e 358 862
e 359 547
e 360 569
e 360 624
e 360 587
e 360 995
e 360 804
e 362 689
e 364 992
e 364 653
e 364 443
e 366 992
e 366 381
e 366 453
e 369 940
e 369 414
e 369 739
e 370 951
e 370 867
e 370 841
e 373 417
e 373 407
e 373 868
e 375 962
e 375 773
e 376 769
e 376 728
e 376 621
e 377 514
e 377 832
e 377 670
e 377 464
e 378 983
e 378 947
e 378 478
e 380 987
e 380 684
e 380 544
e 380 685
e 381 724
e 381 470
e 381 920
e 383 657
e 383 513
e 383 545
e 385 918
e 385 981
e 385 891
e 386 785
e 386 649
e 386 421
e 386 990
e 387 439
e 388 570
e 388 661
e 388 722
e 388 689
e 388 399
e 389 449
e 389 625
e 389 489
e 389 436
e 390 698
e 390 826
e 390 747
e 390 441
e 390 787
e 391 786
e 391 937
e 391 709
e 391 921
e 394 950
e 395 499
e 395 928
e 396 766
e 396 960
e 396 522
e 396 476
e 396 634
e 398 798
e 398 444
e 398 814
e 399 956
e 399 805
e 401 854
e 401 569
e 401 586
e 403 603
e 403 453
e 403 412
e 404 766
e 404 567
e 405 927
e 405 895
e 405 685
e 405 523
e 406 615
e 406 721
e 406 994
e 406 811
e 406 879
e 406 639
e 406 464
e 407 881
e 407 834
e 407 915
e 407 428
e 407 903
e 408 705
e 408 890
e 408 823
e 410 874
e 410 693
e 410 805
e 410 631
e 411 648
e 411 433
e 411 467
e 411 513
e 412 493
e 414 521
e 415 482
e 415 772
e 416 858
e 416 932
e 417 998
e 418 665
e 418 777
e 419 697
e 419 749
e 421 960
e 421 955
e 422 688
e 422 910
e 423 465
e 423 728
e 423 686
e 424 778
e 424 721
e 424 901
e 425 946
e 426 730
e 426 709
e 427 673
e 427 963
e 427 875
e 427 804
e 428 888
e 428 585
e 432 740
e 432 981
e 432 590
e 433 783
e 433 660
e 436 470
e 436 628
e 436 843
e 438 903
e 438 804
e 438 570
e 439 573
e 439 518
e 439 655
e 439 722
e 439 467
e 441 653
e 441 819
e 441 639
e 442 526
e 442 590
e 443 841
e 444 713
e 444 462
e 446 987
e 446 901
e 447 607
e 447 991
e 448 717
e 448 918
e 449 950
e 449 632
e 450 568
e 450 545
e 451 752
e 451 693
e 451 531
e 453 866
e 453 796
e 453 547
e 454 658
e 454 810
e 455 832
e 455 521
e 455 499
e 455 771
e 456 643
e 456 608
e 456 535
e 456 680
e 457 501
e 457 818
e 458 958
e 458 805
e 458 825
e 460 567
e 460 702
e 460 642
e 461 868
e 461 927
e 461 902
e 461 917
e 461 947
e 461 774
e 462 532
e 464 470
e 464 917
e 465 791
e 466 741
e 466 933
e 466 557
e 467 489
e 467 521
e 467 798
e 470 598
e 470 758
e 470 523
e 470 585
e 470 763
e 474 858
e 474 953
e 474 673
e 475 725
e 475 600
e 476 598
e 477 496
e 477 603
e 477 735
e 477 634
e 477 671
e 477 658
e 478 627
e 478 665
e 478 745
e 478 591
e 481 704
e 481 951
e 481 498
e 482 571
e 482 950
e 482 914
e 482 505
e 482 535
e 483 569
e 483 597
e 484 624
e 484 855
e 485 567
e 485 586
e 485 948
e 485 914
e 485 735
e 485 817
e 486 853
e 486 929
e 487 606
e 487 733
e 487 653
e 489 505
e 490 506
e 490 627
e 491 890
e 491 983
e 493 516
e 493 941
e 496 868
e 496 995
e 496 732
e 496 794
e 497 688
e 497 673
e 497 720
e 498 804
e 498 932
e 498 991
e 498 827
e 498 714
e 499 609
e 501 521
e 501 503
e 501 533
e 502 733
e 502 903
e 502 947
e 503 980
e 503 794
e 504 961
e 504 931
e 505 776
e 505 572
e 505 813
e 505 686
e 505 884
e 506 843
e 506 559
e 506 803
e 507 535
e 507 853
e 507 942
e 508 579
e 508 772
e 508 749
e 508 613
e 508 588
e 509 566
e 509 977
e 509 962
e 513 965
e 513 940
e 513 896
e 514 862
e 516 820
e 516 779
e 516 717
e 517 655
e 518 896
e 518 712
e 518 887
e 518 581
e 519 743
e 519 726
e 519 950
e 520 984
e 520 622
e 520 679
e 521 616
e 521 858
e 521 820
e 522 634
e 522 955
e 523 962
e 524 751
e 524 625
e 524 584
e 526 819
e 528 767
e 528 589
e 529 580
e 529 592
e 531 898
e 531 973
e 532 801
e 532 677
e 533 796
e 535 936
e 535 541
e 535 741
e 535 906
e 535 883
e 535 892
e 536 713
e 536 995
e 539 968
e 539 658
e 539 584
e 540 750
e 540 915
e 541 732
e 541 842
e 541 907
e 542 723
e 543 595
e 543 653
e 543 702
e 543 656
e 544 960
e 544 628
e 544 660
e 544 901
e 544 980
e 544 604
e 544 695
e 545 605
e 545 678
e 546 873
e 548 931
e 548 791
e 550 632
e 550 754
e 551 651
e 552 748
e 552 631
e 552 752
e 552 661
e 553 617
e 553 722
e 553 570
e 554 965
e 554 573
e 554 778
e 554 991
e 556 774
e 556 662
e 556 872
e 557 831
e 557 952
e 559 658
e 563 892
e 563 917
e 567 943
e 567 832
e 567 823
e 567 705
e 567 621
e 568 827
e 568 940
e 569 626
e 571 849
e 571 783
e 572 722
e 573 792
e 573 847
e 575 712
e 575 700
e 575 739
e 576 636
e 576 760
e 576 873
e 577 783
e 577 665
e 577 827
e 577 844
e 577 590
e 577 725
e 579 685
e 579 999
e 579 979
e 580 928
e 580 842
e 581 827
e 582 905
e 582 617
e 584 753
e 584 645
e 584 875
e 585 784
e 586 623
e 587 592
e 587 783
e 588 796
e 588 952
e 589 888
e 590 902
e 591 793
e 591 689
e 592 714
e 595 764
e 597 624
e 597 631
e 597 791
e 597 698
e 598 799
e 599 755
e 599 881
e 599 776
e 599 604
e 600 888
e 600 622
e 601 879
e 601 977
e 604 977
e 604 870
e 605 645
e 605 703
e 605 660
e 605 887
e 605 885
e 605 749
e 606 712
e 606 705
e 607 849
e 608 828
e 609 815
e 609 951
e 609 767
e 611 725
e 613 617
e 613 984
e 615 970
e 615 988
e 616 682
e 616 758
e 617 725
e 618 808
e 618 636
e 618 800
e 618 813
e 620 682
e 620 832
e 620 679
e 621 671
e 621 826
e 622 959
e 623 680
e 626 769
e 626 968
e 627 742
e 628 948
e 630 757
e 630 955
e 630 953
e 630 642
e 630 814
e 631 658
e 632 799
e 632 994
e 634 877
e 634 958
e 636 844
e 640 820
e 642 898
e 642 820
e 643 997
e 643 901
e 644 759
e 644 769
e 645 892
e 645 792
e 648 674
e 649 866
e 649 882
e 649 686
e 650 694
e 650 730
e 650 856
e 651 730
e 651 894
e 656 722
e 656 776
e 658 770
e 658 866
e 658 891
e 659 955
e 659 925
e 660 907
e 660 708
e 660 876
e 660 777
e 661 685
e 661 891
e 662 753
e 665 971
e 665 923
e 669 978
e 669 936
e 669 786
e 670 685
e 670 991
e 671 963
e 673 821
e 674 943
e 677 840
e 677 682
e 677 932
e 678 990
e 678 886
e 679 782
e 679 842
e 679 979
e 680 963
e 680 831
e 680 969
e 680 949
e 682 971
e 682 876
e 682 800
e 684 956
e 684 913
e 685 763
e 685 849
e 685 759
e 687 760
e 687 934
e 688 745
e 689 933
e 689 838
e 689 803
e 693 980
e 693 893
e 695 910
e 695 955
e 696 825
e 696 817
e 696 965
e 696 725
e 697 952
e 698 730
e 699 787
e 699 940
e 700 740
e 700 716
e 700 852
e 702 852
e 702 940
e 705 763
e 708 776
e 708 991
e 713 908
e 714 918
e 716 895
e 717 874
e 719 899
e 719 901
e 719 832
e 720 879
e 720 758
e 722 841
e 723 740
e 723 882
e 724 933
e 724 754
e 724 896
e 726 823
e 728 981
e 728 875
e 730 852
e 731 885
e 732 807
e 732 817
e 733 951
e 736 999
e 736 749
e 736 923
e 736 797
e 741 789
e 744 875
e 744 949
e 745 982
e 745 983
e 746 848
e 747 947
e 750 999
e 751 762
e 751 779
e 751 867
e 754 759
e 754 980
e 756 994
e 757 984
e 759 873
e 759 937
e 759 971
e 760 942
e 762 875
e 762 952
e 764 783
e 764 895
e 769 786
e 770 925
e 770 891
e 770 955
e 771 979
e 771 870
e 772 987
e 772 890
e 773 794
e 775 951
e 775 818
e 776 953
e 779 860
e 780 789
e 782 989
e 782 893
e 783 875
e 783 973
e 785 951
e 785 874
e 785 942
e 786 795
e 786 961
e 786 889
e 787 905
e 788 890
e 789 880
e 789 994
e 791 883
e 792 807
e 792 898
e 793 932
e 793 893
e 794 797
e 795 952
e 797 897
e 797 893
e 798 953
e 798 861
e 799 885
e 799 970
e 804 946
e 805 818
e 808 956
e 810 857
e 811 949
e 813 849
e 813 892
e 813 970
e 814 987
e 817 861
e 820 973
e 820 918
e 821 929
e 821 896
e 821 855
e 822 977
e 825 980
e 827 875
e 828 870
e 833 952
e 833 991
e 833 969
e 834 915
e 838 907
e 840 998
e 840 969
e 841 984
e 844 894
e 846 891
e 846 895
e 846 867
e 847 941
e 853 872
e 853 864
e 855 862
e 856 920
e 856 977
e 858 921
e 860 876
e 861 973
e 866 882
e 866 942
e 870 982
e 876 961
e 876 972
e 877 998
e 880 881
e 880 887
e 881 911
e 883 972
e 884 907
e 885 901
e 887 942
e 887 927
e 889 963
e 891 917
e 891 949
e 893 934
e 893 923
e 895 911
e 897 977
e 897 948
e 898 958
e 898 956
e 899 991
e 905 995
e 905 987
e 906 970
e 910 953
e 919 923
e 923 951
e 924 984
e 924 989
e 927 994
e 933 939
e 937 983
e 939 948
e 941 948
e 942 963
e 943 963
e 946 981
e 949 959
e 949 979
e 951 961
e 955 987
e 963 983
e 968 970
e 978 983
